data;

set A := 301472240 777664247 727708810 834941007 617827430 246712413 749460671 763669336 568553723 742679343 205483701 891040169 688460902 733560862 269751983 816834251 742225477 442421206 312106617 375684575 845485155 514336831 56658602 911478496 835438579 492965305 670830052 579083236 424919252 302347357 985725457 482476121 237887181 306147649 974514085 730242121 314473679 283288498 576851168 989036440 433911864 936365688 459165963 972541250 693789196 479000855 440406455 301735072 670084155 168418058 321771011 162651809 522009824 226941704 332283349 879950611 59577726 501027905 619414813 221500377 901183042 595950495 865080087 885228083 69929286 201331463 872356231 835352059 277876681 541770903 977196540 750749924 979622265 212811239 734893327 445781947 334546859 872751434 344051619 462947752 870358175 887299340 788176932 540919659 810005182 616246963 340218314 43117217 128605661 860058175 767666645 339425022 333042298 594247531 667599055 315811217 702650619 809053932 25773007 131952645;
param T := 25000000000;

end;
